(set-logic HORN)
(declare-datatypes ((Nat_7 0)) (((Z_24 ) (S_7 (projS_6 Nat_7)))))
(declare-fun diseqNat_7 (Nat_7 Nat_7) Bool)
(declare-fun projS_7 (Nat_7 Nat_7) Bool)
(declare-fun isZ_7 (Nat_7) Bool)
(declare-fun isS_7 (Nat_7) Bool)
(assert (forall ((x_288 Nat_7))
	(projS_7 x_288 (S_7 x_288))))
(assert (isZ_7 Z_24))
(assert (forall ((x_290 Nat_7))
	(isS_7 (S_7 x_290))))
(assert (forall ((x_291 Nat_7))
	(diseqNat_7 Z_24 (S_7 x_291))))
(assert (forall ((x_292 Nat_7))
	(diseqNat_7 (S_7 x_292) Z_24)))
(assert (forall ((x_293 Nat_7) (x_294 Nat_7))
	(=> (diseqNat_7 x_293 x_294)
	    (diseqNat_7 (S_7 x_293) (S_7 x_294)))))
(declare-datatypes ((list_6 0)) (((nil_6 ) (cons_6 (head_12 Nat_7) (tail_12 list_6)))))
(declare-fun diseqlist_6 (list_6 list_6) Bool)
(declare-fun head_13 (Nat_7 list_6) Bool)
(declare-fun tail_13 (list_6 list_6) Bool)
(declare-fun isnil_6 (list_6) Bool)
(declare-fun iscons_6 (list_6) Bool)
(assert (forall ((x_296 Nat_7) (x_297 list_6))
	(head_13 x_296 (cons_6 x_296 x_297))))
(assert (forall ((x_296 Nat_7) (x_297 list_6))
	(tail_13 x_297 (cons_6 x_296 x_297))))
(assert (isnil_6 nil_6))
(assert (forall ((x_299 Nat_7) (x_300 list_6))
	(iscons_6 (cons_6 x_299 x_300))))
(assert (forall ((x_301 Nat_7) (x_302 list_6))
	(diseqlist_6 nil_6 (cons_6 x_301 x_302))))
(assert (forall ((x_303 Nat_7) (x_304 list_6))
	(diseqlist_6 (cons_6 x_303 x_304) nil_6)))
(assert (forall ((x_305 Nat_7) (x_306 list_6) (x_307 Nat_7) (x_308 list_6))
	(=> (diseqNat_7 x_305 x_307)
	    (diseqlist_6 (cons_6 x_305 x_306) (cons_6 x_307 x_308)))))
(assert (forall ((x_305 Nat_7) (x_306 list_6) (x_307 Nat_7) (x_308 list_6))
	(=> (diseqlist_6 x_306 x_308)
	    (diseqlist_6 (cons_6 x_305 x_306) (cons_6 x_307 x_308)))))
(declare-fun last_1 (Nat_7 list_6) Bool)
(assert (forall ((x_281 Nat_7) (x_278 Nat_7) (x_279 list_6) (y_22 Nat_7))
	(=> (last_1 x_281 (cons_6 x_278 x_279))
	    (last_1 x_281 (cons_6 y_22 (cons_6 x_278 x_279))))))
(assert (forall ((x_283 Nat_7))
	(last_1 x_283 (cons_6 x_283 nil_6))))
(assert (last_1 Z_24 nil_6))
(assert (forall ((x_285 Nat_7) (x_280 Nat_7))
	(=>	(and true
			(diseqNat_7 x_285 x_280)
			(last_1 x_285 (cons_6 x_280 nil_6)))
		false)))
(check-sat)
